210 300 263 155 15 205 207 73 291 89 211 260 289 58 238 140 243 259 15 131 106 269 29 233 284 104 250 296 262 26 118 9 187 133 215 253 37 122 25 79 262 236 39 250 293 28 142 235 38 156 118 144 176 146 128 159 250 77 154 263 154 24 271 93 156 186 45 244 59 70 23 20 57 113 22 101 140 163 88 177 70 205 72 245 50 199 155 51 28 9 14 233 84 284 77 239 221 122 234 31 243 256 103 299 68 124 151 259 38 238 188 159 194 259 103 296 210 9 46 289 69 59 273 152 95 50 142 15 171 76 98 113 83 200 163 203 75 13 161 112 3 48 270 196 59 124 191 20 184 237 8 253 47 280 104 141 29 298 208 251 73 5 115 155 256 277 57 30 42 270 141 44 69 162 291 179 37 234 198 220 222 257 172 268 289 28 161 17 25 68 20 149 124 134 55 79 163 164 108 204 133 300 299 253 213 41 132 249 274 81 220 195 